RAW/CMTT/fspd/CMT12T.vrp_seed-6.out
787.5181454	0.989	32.655
