RAW/CMTT/fspd/CMT12T.vrp_seed-6.sol
Route #1: 23 26 28 30 29 27 25 24 22 21
Route #2: 5 3 7 8 9 6 4 2 91 88 86 87 90
Route #3: 47 49 52 50 51 48 46 45 44 42 43
Route #4: 13 17 18 19 15 16 14 12 11 10
Route #5: 67 65 63 62 74 72 61 64 66 69
Route #6: 75 1 99 100 97 93 92 94 95 96 98
Route #7: 89 85 84 83 82 81 78 76 71 70 73 77 79 80
Route #8: 68 55 57 54 53 56 58 60 59 40 41
Route #9: 32 33 31 35 37 38 39 36 34 20
Cost 787.518145